Cars = 1..200;
Options = 1..5;
Classes = 1..24;
sequenceMinCapacity = [0, 0, 0, 0, 0];
sequenceMaxCapacity = [1, 2, 1, 2, 1];
sequenceSize = [2, 3, 3, 5, 5];
numOrdered = [3, 3, 35, 14, 4, 3, 22, 1, 2, 3, 3, 9, 1, 2, 11, 4, 4, 33, 14, 5, 16, 2, 3, 3];
classHasOption = [|false,  true, false,  true,  true
                  |false,  true,  true, false, false
                  | true, false, false, false, false
                  | true,  true, false, false, false
                  | true, false,  true,  true, false
                  | true, false, false, false,  true
                  |false, false, false,  true, false
                  |false, false,  true,  true,  true
                  | true,  true,  true, false, false
                  |false,  true,  true,  true, false
                  | true, false, false,  true,  true
                  | true, false,  true, false, false
                  | true,  true,  true,  true, false
                  |false, false,  true, false,  true
                  |false, false, false, false,  true
                  | true, false, false,  true, false
                  | true,  true, false,  true, false
                  |false,  true, false, false, false
                  |false,  true, false,  true, false
                  |false, false,  true,  true, false
                  |false, false,  true, false, false
                  |false,  true,  true, false,  true
                  | true,  true, false, false,  true
                  |false,  true, false, false,  true|];
optionOrdering = [1, 5, 3, 4, 2];
